min: c;

c = 3.34185862740526 * u4_t1_h1 + 3.59937596818944 * u4_t1_h2 + 3.57486445087889 * u4_t1_h3 + 3.01334083524423 * u4_t1_h4 + 3.01334083524423 * u4_t10_h4 + 3.84325149399339 * u4_t1_h5 + 3.84325149399339 * u4_t10_h5 + 4.09028898550256 * u4_t1_h6 + 4.09028898550256 * u4_t10_h6 + 4.57705706754142 * u4_t1_h7 + 4.57705706754142 * u4_t10_h7 + 5.05826384220985 * u4_t1_h8 + 5.05826384220985 * u4_t9_h8 + 5.05826384220985 * u4_t10_h8 + 5.21863769073631 * u4_t9_h9 + 5.21863769073631 * u4_t10_h9 + 5.58366580571975 * u4_t9_h10 + 5.58366580571975 * u4_t10_h10 + 3.62820436404394 * u4_t2_h11 + 3.62820436404394 * u4_t4_h11 + 3.62820436404394 * u4_t9_h11 + 3.62820436404394 * u4_t10_h11 + 5.862280133962 * u4_t2_h12 + 5.862280133962 * u4_t3_h12 + 5.862280133962 * u4_t4_h12 + 5.862280133962 * u4_t8_h12 + 5.862280133962 * u4_t9_h12 + 5.862280133962 * u4_t10_h12 + 4.17694879903379 * u4_t2_h13 + 4.17694879903379 * u4_t3_h13 + 4.17694879903379 * u4_t4_h13 + 4.17694879903379 * u4_t8_h13 + 4.17694879903379 * u4_t9_h13 + 5.23086789175333 * u4_t2_h14 + 5.23086789175333 * u4_t3_h14 + 5.23086789175333 * u4_t4_h14 + 5.23086789175333 * u4_t8_h14 + 5.23086789175333 * u4_t9_h14 + 6.33690924030496 * u4_t2_h15 + 6.33690924030496 * u4_t3_h15 + 6.33690924030496 * u4_t4_h15 + 6.33690924030496 * u4_t8_h15 + 6.33690924030496 * u4_t9_h15 + 5.46234771391532 * u4_t2_h16 + 5.46234771391532 * u4_t3_h16 + 5.46234771391532 * u4_t4_h16 + 5.46234771391532 * u4_t5_h16 + 5.46234771391532 * u4_t8_h16 + 5.46234771391532 * u4_t9_h16 + 6.75264610786601 * u4_t2_h17 + 6.75264610786601 * u4_t3_h17 + 6.75264610786601 * u4_t5_h17 + 6.75264610786601 * u4_t8_h17 + 6.75264610786601 * u4_t9_h17 + 6.27548944937475 * u4_t2_h18 + 6.27548944937475 * u4_t3_h18 + 6.27548944937475 * u4_t5_h18 + 6.27548944937475 * u4_t8_h18 + 6.27548944937475 * u4_t9_h18 + 5.93533432707165 * u4_t2_h19 + 5.93533432707165 * u4_t3_h19 + 5.93533432707165 * u4_t6_h19 + 5.93533432707165 * u4_t8_h19 + 5.93533432707165 * u4_t9_h19 + 6.0044169087517 * u4_t2_h20 + 6.0044169087517 * u4_t6_h20 + 6.0044169087517 * u4_t9_h20 + 5.75106209641017 * u4_t6_h21 + 5.17056017734889 * u4_t6_h22 + 5.17056017734889 * u4_t7_h22 + 5.44473336209933 * u4_t6_h23 + 5.44473336209933 * u4_t7_h23;
0 <= u4_t1_h1 <= 1;
0 <= u4_t1_h2 <= 1;
0 <= u4_t1_h3 <= 1;
0 <= u4_t1_h4 <= 1;
0 <= u4_t1_h5 <= 1;
0 <= u4_t1_h6 <= 1;
0 <= u4_t1_h7 <= 1;
0 <= u4_t1_h8 <= 1;
u4_t1_h1 + u4_t1_h2 + u4_t1_h3 + u4_t1_h4 + u4_t1_h5 + u4_t1_h6 + u4_t1_h7 + u4_t1_h8 = 1;
0 <= u4_t2_h11 <= 1;
0 <= u4_t2_h12 <= 1;
0 <= u4_t2_h13 <= 1;
0 <= u4_t2_h14 <= 1;
0 <= u4_t2_h15 <= 1;
0 <= u4_t2_h16 <= 1;
0 <= u4_t2_h17 <= 1;
0 <= u4_t2_h18 <= 1;
0 <= u4_t2_h19 <= 1;
0 <= u4_t2_h20 <= 1;
u4_t2_h11 + u4_t2_h12 + u4_t2_h13 + u4_t2_h14 + u4_t2_h15 + u4_t2_h16 + u4_t2_h17 + u4_t2_h18 + u4_t2_h19 + u4_t2_h20 = 2;
0 <= u4_t3_h12 <= 1;
0 <= u4_t3_h13 <= 1;
0 <= u4_t3_h14 <= 1;
0 <= u4_t3_h15 <= 1;
0 <= u4_t3_h16 <= 1;
0 <= u4_t3_h17 <= 1;
0 <= u4_t3_h18 <= 1;
0 <= u4_t3_h19 <= 1;
u4_t3_h12 + u4_t3_h13 + u4_t3_h14 + u4_t3_h15 + u4_t3_h16 + u4_t3_h17 + u4_t3_h18 + u4_t3_h19 = 3;
0 <= u4_t4_h11 <= 1;
0 <= u4_t4_h12 <= 1;
0 <= u4_t4_h13 <= 1;
0 <= u4_t4_h14 <= 1;
0 <= u4_t4_h15 <= 1;
0 <= u4_t4_h16 <= 1;
u4_t4_h11 + u4_t4_h12 + u4_t4_h13 + u4_t4_h14 + u4_t4_h15 + u4_t4_h16 = 3;
0 <= u4_t5_h16 <= 1;
0 <= u4_t5_h17 <= 1;
0 <= u4_t5_h18 <= 1;
u4_t5_h16 + u4_t5_h17 + u4_t5_h18 = 1;
0 <= u4_t6_h19 <= 1;
0 <= u4_t6_h20 <= 1;
0 <= u4_t6_h21 <= 1;
0 <= u4_t6_h22 <= 1;
0 <= u4_t6_h23 <= 1;
u4_t6_h19 + u4_t6_h20 + u4_t6_h21 + u4_t6_h22 + u4_t6_h23 = 3;
0 <= u4_t7_h22 <= 1;
0 <= u4_t7_h23 <= 1;
u4_t7_h22 + u4_t7_h23 = 1;
0 <= u4_t8_h12 <= 1;
0 <= u4_t8_h13 <= 1;
0 <= u4_t8_h14 <= 1;
0 <= u4_t8_h15 <= 1;
0 <= u4_t8_h16 <= 1;
0 <= u4_t8_h17 <= 1;
0 <= u4_t8_h18 <= 1;
0 <= u4_t8_h19 <= 1;
u4_t8_h12 + u4_t8_h13 + u4_t8_h14 + u4_t8_h15 + u4_t8_h16 + u4_t8_h17 + u4_t8_h18 + u4_t8_h19 = 2;
0 <= u4_t9_h8 <= 1;
0 <= u4_t9_h9 <= 1;
0 <= u4_t9_h10 <= 1;
0 <= u4_t9_h11 <= 1;
0 <= u4_t9_h12 <= 1;
0 <= u4_t9_h13 <= 1;
0 <= u4_t9_h14 <= 1;
0 <= u4_t9_h15 <= 1;
0 <= u4_t9_h16 <= 1;
0 <= u4_t9_h17 <= 1;
0 <= u4_t9_h18 <= 1;
0 <= u4_t9_h19 <= 1;
0 <= u4_t9_h20 <= 1;
u4_t9_h8 + u4_t9_h9 + u4_t9_h10 + u4_t9_h11 + u4_t9_h12 + u4_t9_h13 + u4_t9_h14 + u4_t9_h15 + u4_t9_h16 + u4_t9_h17 + u4_t9_h18 + u4_t9_h19 + u4_t9_h20 = 2;
0 <= u4_t10_h4 <= 1;
0 <= u4_t10_h5 <= 1;
0 <= u4_t10_h6 <= 1;
0 <= u4_t10_h7 <= 1;
0 <= u4_t10_h8 <= 1;
0 <= u4_t10_h9 <= 1;
0 <= u4_t10_h10 <= 1;
0 <= u4_t10_h11 <= 1;
0 <= u4_t10_h12 <= 1;
u4_t10_h4 + u4_t10_h5 + u4_t10_h6 + u4_t10_h7 + u4_t10_h8 + u4_t10_h9 + u4_t10_h10 + u4_t10_h11 + u4_t10_h12 = 2;
